Problem:    
Rows:       103
Columns:    64
Non-zeros:  282
Status:     OPTIMAL
Objective:  obj = 3.75 (MAXimum)

   No.   Row name   St   Activity     Lower bound   Upper bound    Marginal
------ ------------ -- ------------- ------------- ------------- -------------
     1 r.4          NU             0                           0           0.5 
     2 r.5          NU             0                           0           0.5 
     3 r.6          NU             0                           0          0.25 
     4 r.7          NU             0                           0          0.25 
     5 r.8          NU             0                           0          0.25 
     6 r.9          NU             0                           0          0.25 
     7 r.10         NU             0                           0          0.25 
     8 r.11         NU             0                           0          0.25 
     9 r.12         NU             0                           0         < eps
    10 r.13         NU             0                           0         < eps
    11 r.14         NU             0                           0          0.25 
    12 r.15         NU             0                           0          0.25 
    13 r.16         NU             0                           0          0.25 
    14 r.17         NU             0                           0          0.25 
    15 r.18         NU             0                           0          0.25 
    16 r.19         NU             0                           0          0.25 
    17 r.20         NS             0             0             =           0.5 
    18 r.21         NU             0                           0          0.25 
    19 r.22         NU             0                           0         < eps
    20 r.23         NU             0                           0         < eps
    21 r.24         B           -1.5                           0 
    22 r.25         NU             0                           0          0.25 
    23 r.26         B           -0.5                           0 
    24 r.27         NU             0                           0         < eps
    25 r.28         B          -0.25                           0 
    26 r.29         NU             0                           0         < eps
    27 r.30         B              0                           0 
    28 r.31         B              0                           0 
    29 r.32         NU             0                           0          0.25 
    30 r.33         NU             0                           0          0.25 
    31 r.34         NU             0                           0         < eps
    32 r.35         NU             0                           0         < eps
    33 r.36         NU             0                           0         < eps
    34 r.37         NU             0                           0         < eps
    35 r.38         NU             0                           0         < eps
    36 r.39         B          -0.75                           0 
    37 r.40         NU             0                           0          0.25 
    38 r.41         NU             0                           0          0.25 
    39 r.42         NU             0                           0          0.25 
    40 r.43         NU             0                           0          0.25 
    41 r.44         NU             0                           0          0.25 
    42 r.45         NU             0                           0          0.25 
    43 r.46         B              0                           0 
    44 r.47         B             -2                           0 
    45 r.48         B              0                           0 
    46 r.49         B             -2                           0 
    47 r.50         B              0                           0 
    48 r.51         B             -2                           0 
    49 r.52         B          -0.25                           0 
    50 r.53         B          -1.75                           0 
    51 r.54         B           -0.5                           0 
    52 r.55         B           -1.5                           0 
    53 r.56         B           -0.5                           0 
    54 r.57         B           -1.5                           0 
    55 r.58         B          -1.25                           0 
    56 r.59         B          -0.75                           0 
    57 r.60         B              0             0             = 
    58 r.61         B             -1                           0 
    59 r.62         NU             0                           0          0.25 
    60 r.63         B           -1.5                           0 
    61 r.64         B           -0.5                           0 
    62 r.65         B           -1.5                           0 
    63 r.66         NU             0                           0          0.25 
    64 r.67         NS             0             0             =           0.5 
    65 r.68         NU             0                           0         < eps
    66 r.69         B           -1.5                           0 
    67 r.70         NU             0                           0         < eps
    68 r.71         B          -1.75                           0 
    69 r.72         B              0                           0 
    70 r.73         B             -2                           0 
    71 r.74         B              0                           0 
    72 r.75         B             -2                           0 
    73 r.76         B              0                           0 
    74 r.77         B             -2                           0 
    75 r.78         B              0                           0 
    76 r.79         B             -2                           0 
    77 r.80         B              0                           0 
    78 r.81         B          -1.25                           0 
    79 r.82         B              0                           0 
    80 r.83         B             -2                           0 
    81 r.84         B              0                           0 
    82 r.85         B             -2                           0 
    83 r.86         B             -1                           0 
    84 r.87         B              0             0             = 
    85 r.88         NS             1             1             =           0.5 
    86 r.89         NS             1             1             =           0.5 
    87 r.90         NS             1             1             =          0.25 
    88 r.91         NS             1             1             =          0.25 
    89 r.92         NS             1             1             =           0.5 
    90 r.93         B              1             1             = 
    91 r.94         B              1             1             = 
    92 r.95         NS             1             1             =           0.5 
    93 r.96         B              1             1             = 
    94 r.97         B              1             1             = 
    95 r.98         NS             1             1             =          0.25 
    96 r.99         B              1             1             = 
    97 r.100        NS             1             1             =         < eps
    98 r.101        B              1             1             = 
    99 r.102        NS             1             1             =          0.25 
   100 r.103        NS             1             1             =          0.25 
   101 r.104        NS             1             1             =         < eps
   102 r.105        NS             1             1             =          0.25 
   103 r.106        NS             1             1             =          0.25 

   No. Column name  St   Activity     Lower bound   Upper bound    Marginal
------ ------------ -- ------------- ------------- ------------- -------------
     1 V(0,15)      B            1.5             0               
     2 V(0,17)      B              6                             
     3 F(0,15)      NL             0             0                       < eps
     4 F(0,17)      B              1             0               
     5 V(1,15)      B            1.5             0               
     6 V(1,17)      B              5                             
     7 F(1,15)      NL             0             0                       < eps
     8 F(1,17)      B              1             0               
     9 V(2,15)      B            1.5             0               
    10 V(2,17)      B              4                             
    11 V(3,15)      B            1.5             0               
    12 V(3,17)      B              4                             
    13 F(2,15)      B              0             0               
    14 F(2,17)      B              1             0               
    15 V(5,15)      B            1.5             0               
    16 V(5,17)      B              3                             
    17 F(S0,15)     B           0.25             0               
    18 F(S0,17)     B           0.75             0               
    19 V(6,15)      B           1.25             0               
    20 V(6,17)      B           2.25                             
    21 V(4,15)      B           1.25             0               
    22 V(4,17)      B           2.25                             
    23 V(10,15)     B              1             0               
    24 V(10,17)     B            1.5                             
    25 F(10,15)     B              1             0               
    26 F(10,17)     NL             0             0                       < eps
    27 V(15,15)     B              0             0               
    28 V(15,17)     B            1.5                             
    29 F(15,15)     NL             0             0                       -0.25 
    30 F(15,17)     B              1             0               
    31 V(18,17)     B            0.5                             
    32 V(18,15)     B            0.5             0               
    33 F(18,15)     B            0.5             0               
    34 F(18,17)     B            0.5             0               
    35 V(16,15)     B              0             0               
    36 V(16,17)     B              0                             
    37 V(17,15)     B            1.5             0               
    38 V(17,17)     B              0                             
    39 V(11,15)     B            1.5             0               
    40 V(11,17)     B            1.5                             
    41 V(12,15)     B            1.5             0               
    42 V(12,17)     B           0.75                             
    43 F(3,15)      NL             0             0                       < eps
    44 F(3,17)      B              1             0               
    45 V(8,15)      B            1.5             0               
    46 V(8,17)      B              3                             
    47 F(S1,15)     NL             0             0                       < eps
    48 F(S1,17)     B              1             0               
    49 V(7,15)      B            1.5             0               
    50 V(7,17)      B              2                             
    51 V(13,15)     B            1.5             0               
    52 V(13,17)     B              1                             
    53 V(9,15)      B            1.5             0               
    54 V(9,17)      B              2                             
    55 V(14,15)     B            1.5             0               
    56 V(14,17)     B              1                             
    57 F(14,15)     NL             0             0                       < eps
    58 F(14,17)     B              1             0               
    59 F(16,15)     NL             0             0                       < eps
    60 F(16,17)     B              1             0               
    61 F(17,15)     B              1             0               
    62 F(17,17)     NL             0             0                       -0.25 
    63 F(12,15)     NL             0             0                       < eps
    64 F(12,17)     B              1             0               

Karush-Kuhn-Tucker optimality conditions:

KKT.PE: max.abs.err = 0.00e+00 on row 0
        max.rel.err = 0.00e+00 on row 0
        High quality

KKT.PB: max.abs.err = 0.00e+00 on row 0
        max.rel.err = 0.00e+00 on row 0
        High quality

KKT.DE: max.abs.err = 0.00e+00 on column 0
        max.rel.err = 0.00e+00 on column 0
        High quality

KKT.DB: max.abs.err = 0.00e+00 on row 0
        max.rel.err = 0.00e+00 on row 0
        High quality

End of output
